c SSAT file for PBN expProb/benchmark/C5315-8h written by probABC
p cnf 918 2190
r 0.500000 20 0
r 0.500000 21 0
r 0.500000 22 0
r 0.500000 23 0
r 0.500000 24 0
r 0.500000 25 0
r 0.500000 26 0
r 0.500000 27 0
r 0.500000 28 0
r 0.500000 29 0
r 0.500000 30 0
r 0.500000 31 0
r 0.500000 32 0
r 0.500000 33 0
r 0.500000 34 0
r 0.500000 35 0
r 0.500000 36 0
r 0.500000 37 0
r 0.500000 38 0
r 0.500000 39 0
r 0.500000 40 0
r 0.500000 41 0
r 0.500000 42 0
r 0.500000 43 0
r 0.500000 44 0
r 0.500000 45 0
r 0.500000 46 0
r 0.500000 47 0
r 0.500000 48 0
r 0.500000 49 0
r 0.500000 50 0
r 0.500000 51 0
r 0.500000 52 0
r 0.500000 53 0
r 0.500000 54 0
r 0.500000 55 0
r 0.500000 56 0
r 0.500000 57 0
r 0.500000 58 0
r 0.500000 59 0
r 0.500000 60 0
r 0.500000 61 0
r 0.500000 62 0
r 0.500000 63 0
r 0.500000 64 0
r 0.500000 65 0
r 0.500000 66 0
r 0.500000 67 0
r 0.500000 68 0
r 0.500000 69 0
r 0.500000 70 0
r 0.500000 71 0
r 0.500000 72 0
r 0.500000 73 0
r 0.500000 74 0
r 0.500000 75 0
r 0.500000 76 0
r 0.500000 77 0
r 0.500000 78 0
r 0.500000 79 0
r 0.500000 80 0
r 0.500000 81 0
r 0.500000 82 0
r 0.500000 83 0
r 0.500000 84 0
r 0.500000 85 0
r 0.500000 86 0
r 0.500000 87 0
r 0.500000 88 0
r 0.500000 89 0
r 0.500000 90 0
r 0.500000 91 0
r 0.500000 92 0
r 0.500000 93 0
r 0.500000 94 0
r 0.500000 95 0
r 0.500000 96 0
r 0.500000 97 0
r 0.500000 98 0
r 0.500000 99 0
r 0.500000 100 0
r 0.500000 101 0
r 0.500000 102 0
r 0.500000 103 0
r 0.500000 104 0
r 0.500000 105 0
r 0.500000 106 0
r 0.500000 107 0
r 0.500000 108 0
r 0.500000 109 0
r 0.500000 110 0
r 0.500000 111 0
r 0.500000 112 0
r 0.500000 113 0
r 0.500000 114 0
r 0.500000 115 0
r 0.500000 116 0
r 0.500000 117 0
r 0.500000 118 0
r 0.500000 119 0
r 0.500000 120 0
r 0.500000 121 0
r 0.500000 122 0
r 0.500000 123 0
r 0.500000 124 0
r 0.500000 125 0
r 0.500000 126 0
r 0.500000 127 0
r 0.500000 128 0
r 0.500000 129 0
r 0.500000 130 0
r 0.500000 131 0
r 0.500000 132 0
r 0.500000 133 0
r 0.500000 134 0
r 0.500000 135 0
r 0.500000 136 0
r 0.500000 137 0
r 0.500000 138 0
r 0.500000 139 0
r 0.500000 140 0
r 0.500000 141 0
r 0.500000 142 0
r 0.500000 143 0
r 0.500000 144 0
r 0.500000 145 0
r 0.500000 146 0
r 0.500000 147 0
r 0.500000 148 0
r 0.500000 149 0
r 0.500000 150 0
r 0.500000 151 0
r 0.500000 152 0
r 0.500000 153 0
r 0.500000 154 0
r 0.500000 155 0
r 0.500000 156 0
r 0.500000 157 0
r 0.500000 158 0
r 0.500000 159 0
r 0.500000 160 0
r 0.500000 161 0
r 0.500000 162 0
r 0.500000 163 0
r 0.500000 164 0
r 0.500000 165 0
r 0.500000 166 0
r 0.500000 167 0
r 0.500000 168 0
r 0.500000 169 0
r 0.500000 170 0
r 0.500000 171 0
r 0.500000 172 0
r 0.500000 173 0
r 0.500000 174 0
r 0.500000 175 0
r 0.500000 176 0
r 0.500000 177 0
r 0.500000 178 0
r 0.125000 179 0
r 0.125000 180 0
r 0.125000 181 0
r 0.125000 182 0
r 0.125000 183 0
r 0.125000 184 0
r 0.125000 185 0
r 0.125000 186 0
r 0.125000 187 0
r 0.125000 188 0
e 1 0
e 2 0
e 3 0
e 4 0
e 5 0
e 6 0
e 7 0
e 8 0
e 9 0
e 10 0
e 11 0
e 12 0
e 13 0
e 14 0
e 15 0
e 16 0
e 17 0
e 18 0
e 19 0
e 190 0
e 191 0
e 192 0
e 193 0
e 194 0
e 195 0
e 196 0
e 197 0
e 198 0
e 199 0
e 200 0
e 201 0
e 202 0
e 203 0
e 204 0
e 205 0
e 206 0
e 207 0
e 208 0
e 209 0
e 210 0
e 211 0
e 212 0
e 213 0
e 214 0
e 215 0
e 216 0
e 217 0
e 218 0
e 219 0
e 220 0
e 221 0
e 222 0
e 223 0
e 224 0
e 225 0
e 226 0
e 227 0
e 228 0
e 229 0
e 230 0
e 231 0
e 232 0
e 233 0
e 234 0
e 235 0
e 236 0
e 237 0
e 238 0
e 239 0
e 240 0
e 241 0
e 242 0
e 243 0
e 244 0
e 245 0
e 246 0
e 247 0
e 248 0
e 249 0
e 250 0
e 251 0
e 252 0
e 253 0
e 254 0
e 255 0
e 256 0
e 257 0
e 258 0
e 259 0
e 260 0
e 261 0
e 262 0
e 263 0
e 264 0
e 265 0
e 266 0
e 267 0
e 268 0
e 269 0
e 270 0
e 271 0
e 272 0
e 273 0
e 274 0
e 275 0
e 276 0
e 277 0
e 278 0
e 279 0
e 280 0
e 281 0
e 282 0
e 283 0
e 284 0
e 285 0
e 286 0
e 287 0
e 288 0
e 289 0
e 290 0
e 291 0
e 292 0
e 293 0
e 294 0
e 295 0
e 296 0
e 297 0
e 298 0
e 299 0
e 300 0
e 301 0
e 302 0
e 303 0
e 304 0
e 305 0
e 306 0
e 307 0
e 308 0
e 309 0
e 310 0
e 311 0
e 312 0
e 313 0
e 314 0
e 315 0
e 316 0
e 317 0
e 318 0
e 319 0
e 320 0
e 321 0
e 322 0
e 323 0
e 324 0
e 325 0
e 326 0
e 327 0
e 328 0
e 329 0
e 330 0
e 331 0
e 332 0
e 333 0
e 334 0
e 335 0
e 336 0
e 337 0
e 338 0
e 339 0
e 340 0
e 341 0
e 342 0
e 343 0
e 344 0
e 345 0
e 346 0
e 347 0
e 348 0
e 349 0
e 350 0
e 351 0
e 352 0
e 353 0
e 354 0
e 355 0
e 356 0
e 357 0
e 358 0
e 359 0
e 360 0
e 361 0
e 362 0
e 363 0
e 364 0
e 365 0
e 366 0
e 367 0
e 368 0
e 369 0
e 370 0
e 371 0
e 372 0
e 373 0
e 374 0
e 375 0
e 376 0
e 377 0
e 378 0
e 379 0
e 380 0
e 381 0
e 382 0
e 383 0
e 384 0
e 385 0
e 386 0
e 387 0
e 388 0
e 389 0
e 390 0
e 391 0
e 392 0
e 393 0
e 394 0
e 395 0
e 396 0
e 397 0
e 398 0
e 399 0
e 400 0
e 401 0
e 402 0
e 403 0
e 404 0
e 405 0
e 406 0
e 407 0
e 408 0
e 409 0
e 410 0
e 411 0
e 412 0
e 413 0
e 414 0
e 415 0
e 416 0
e 417 0
e 418 0
e 419 0
e 420 0
e 421 0
e 422 0
e 423 0
e 424 0
e 425 0
e 426 0
e 427 0
e 428 0
e 429 0
e 430 0
e 431 0
e 432 0
e 433 0
e 434 0
e 435 0
e 436 0
e 437 0
e 438 0
e 439 0
e 440 0
e 441 0
e 442 0
e 443 0
e 444 0
e 445 0
e 446 0
e 447 0
e 448 0
e 449 0
e 450 0
e 451 0
e 452 0
e 453 0
e 454 0
e 455 0
e 456 0
e 457 0
e 458 0
e 459 0
e 460 0
e 461 0
e 462 0
e 463 0
e 464 0
e 465 0
e 466 0
e 467 0
e 468 0
e 469 0
e 470 0
e 471 0
e 472 0
e 473 0
e 474 0
e 475 0
e 476 0
e 477 0
e 478 0
e 479 0
e 480 0
e 481 0
e 482 0
e 483 0
e 484 0
e 485 0
e 486 0
e 487 0
e 488 0
e 489 0
e 490 0
e 491 0
e 492 0
e 493 0
e 494 0
e 495 0
e 496 0
e 497 0
e 498 0
e 499 0
e 500 0
e 501 0
e 502 0
e 503 0
e 504 0
e 505 0
e 506 0
e 507 0
e 508 0
e 509 0
e 510 0
e 511 0
e 512 0
e 513 0
e 514 0
e 515 0
e 516 0
e 517 0
e 518 0
e 519 0
e 520 0
e 521 0
e 522 0
e 523 0
e 524 0
e 525 0
e 526 0
e 527 0
e 528 0
e 529 0
e 530 0
e 531 0
e 532 0
e 533 0
e 534 0
e 535 0
e 536 0
e 537 0
e 538 0
e 539 0
e 540 0
e 541 0
e 542 0
e 543 0
e 544 0
e 545 0
e 546 0
e 547 0
e 548 0
e 549 0
e 550 0
e 551 0
e 552 0
e 553 0
e 554 0
e 555 0
e 556 0
e 557 0
e 558 0
e 559 0
e 560 0
e 561 0
e 562 0
e 563 0
e 564 0
e 565 0
e 566 0
e 567 0
e 568 0
e 569 0
e 570 0
e 571 0
e 572 0
e 573 0
e 574 0
e 575 0
e 576 0
e 577 0
e 578 0
e 579 0
e 580 0
e 581 0
e 582 0
e 583 0
e 584 0
e 585 0
e 586 0
e 587 0
e 588 0
e 589 0
e 590 0
e 591 0
e 592 0
e 593 0
e 594 0
e 595 0
e 596 0
e 597 0
e 598 0
e 599 0
e 600 0
e 601 0
e 602 0
e 603 0
e 604 0
e 605 0
e 606 0
e 607 0
e 608 0
e 609 0
e 610 0
e 611 0
e 612 0
e 613 0
e 614 0
e 615 0
e 616 0
e 617 0
e 618 0
e 619 0
e 620 0
e 621 0
e 622 0
e 623 0
e 624 0
e 625 0
e 626 0
e 627 0
e 628 0
e 629 0
e 630 0
e 631 0
e 632 0
e 633 0
e 634 0
e 635 0
e 636 0
e 637 0
e 638 0
e 639 0
e 640 0
e 641 0
e 642 0
e 643 0
e 644 0
e 645 0
e 646 0
e 647 0
e 648 0
e 649 0
e 650 0
e 651 0
e 652 0
e 653 0
e 654 0
e 655 0
e 656 0
e 657 0
e 658 0
e 659 0
e 660 0
e 661 0
e 662 0
e 663 0
e 664 0
e 665 0
e 666 0
e 667 0
e 668 0
e 669 0
e 670 0
e 671 0
e 672 0
e 673 0
e 674 0
e 675 0
e 676 0
e 677 0
e 678 0
e 679 0
e 680 0
e 681 0
e 682 0
e 683 0
e 684 0
e 685 0
e 686 0
e 687 0
e 688 0
e 689 0
e 690 0
e 691 0
e 692 0
e 693 0
e 694 0
e 695 0
e 696 0
e 697 0
e 698 0
e 699 0
e 700 0
e 701 0
e 702 0
e 703 0
e 704 0
e 705 0
e 706 0
e 707 0
e 708 0
e 709 0
e 710 0
e 711 0
e 712 0
e 713 0
e 714 0
e 715 0
e 716 0
e 717 0
e 718 0
e 719 0
e 720 0
e 721 0
e 722 0
e 723 0
e 724 0
e 725 0
e 726 0
e 727 0
e 728 0
e 729 0
e 730 0
e 731 0
e 732 0
e 733 0
e 734 0
e 735 0
e 736 0
e 737 0
e 738 0
e 739 0
e 740 0
e 741 0
e 742 0
e 743 0
e 744 0
e 745 0
e 746 0
e 747 0
e 748 0
e 749 0
e 750 0
e 751 0
e 752 0
e 753 0
e 754 0
e 755 0
e 756 0
e 757 0
e 758 0
e 759 0
e 760 0
e 761 0
e 762 0
e 763 0
e 764 0
e 765 0
e 766 0
e 767 0
e 768 0
e 769 0
e 770 0
e 771 0
e 772 0
e 773 0
e 774 0
e 775 0
e 776 0
e 777 0
e 778 0
e 779 0
e 780 0
e 781 0
e 782 0
e 783 0
e 784 0
e 785 0
e 786 0
e 787 0
e 788 0
e 789 0
e 790 0
e 791 0
e 792 0
e 793 0
e 794 0
e 795 0
e 796 0
e 797 0
e 798 0
e 799 0
e 800 0
e 801 0
e 802 0
e 803 0
e 804 0
e 805 0
e 806 0
e 807 0
e 808 0
e 809 0
e 810 0
e 811 0
e 812 0
e 813 0
e 814 0
e 815 0
e 816 0
e 817 0
e 818 0
e 819 0
e 820 0
e 821 0
e 822 0
e 823 0
e 824 0
e 825 0
e 826 0
e 827 0
e 828 0
e 829 0
e 830 0
e 831 0
e 832 0
e 833 0
e 834 0
e 835 0
e 836 0
e 837 0
e 838 0
e 839 0
e 840 0
e 841 0
e 842 0
e 843 0
e 844 0
e 845 0
e 846 0
e 847 0
e 848 0
e 849 0
e 850 0
e 851 0
e 852 0
e 853 0
e 854 0
e 855 0
e 856 0
e 857 0
e 858 0
e 859 0
e 860 0
e 861 0
e 862 0
e 863 0
e 864 0
e 865 0
e 866 0
e 867 0
e 868 0
e 869 0
e 870 0
e 871 0
e 872 0
e 873 0
e 874 0
e 875 0
e 876 0
e 877 0
e 878 0
e 879 0
e 880 0
e 881 0
e 882 0
e 883 0
e 884 0
e 885 0
e 886 0
e 887 0
e 888 0
e 889 0
e 890 0
e 891 0
e 892 0
e 893 0
e 894 0
e 895 0
e 896 0
e 897 0
e 898 0
e 899 0
e 900 0
e 901 0
e 902 0
e 903 0
e 904 0
e 905 0
e 906 0
e 907 0
e 908 0
e 909 0
e 910 0
e 911 0
e 912 0
e 913 0
e 914 0
e 915 0
e 916 0
e 917 0
e 918 0
e 189 0
190 -44 -50 0
-190 44 0
-190 50 0
191 -45 -190 0
-191 45 0
-191 190 0
192 -44 -49 0
-192 44 0
-192 49 0
193 -45 -192 0
-193 45 0
-193 192 0
194 -74 -93 0
-194 74 0
-194 93 0
195 -79 -93 0
-195 79 0
-195 93 0
196 194 195 0
-196 -194 0
-196 -195 0
197 -76 -95 0
-197 76 0
-197 95 0
198 -78 -95 0
-198 78 0
-198 95 0
199 197 198 0
-199 -197 0
-199 -198 0
200 -76 -146 0
-200 76 0
-200 146 0
201 -97 -200 0
-201 97 0
-201 200 0
202 -78 -146 0
-202 78 0
-202 146 0
203 -97 -202 0
-203 97 0
-203 202 0
204 201 203 0
-204 -201 0
-204 -203 0
205 -76 -148 0
-205 76 0
-205 148 0
206 -100 -205 0
-206 100 0
-206 205 0
207 -78 -148 0
-207 78 0
-207 148 0
208 -100 -207 0
-208 100 0
-208 207 0
209 206 208 0
-209 -206 0
-209 -208 0
210 204 209 0
-210 -204 0
-210 -209 0
211 199 -210 0
-211 -199 0
-211 210 0
212 196 -211 0
-212 -196 0
-212 211 0
213 -76 -150 0
-213 76 0
-213 150 0
214 -76 -149 0
-214 76 0
-214 149 0
215 -103 -214 0
-215 103 0
-215 214 0
216 -78 -149 0
-216 78 0
-216 149 0
217 -103 -216 0
-217 103 0
-217 216 0
218 215 217 0
-218 -215 0
-218 -217 0
219 -213 218 0
-219 213 0
-219 -218 0
220 -76 -117 0
-220 76 0
-220 117 0
221 -78 -117 0
-221 78 0
-221 117 0
222 220 221 0
-222 -220 0
-222 -221 0
223 -76 -154 0
-223 76 0
-223 154 0
224 -111 -223 0
-224 111 0
-224 223 0
225 -78 -154 0
-225 78 0
-225 154 0
226 -111 -225 0
-226 111 0
-226 225 0
227 224 226 0
-227 -224 0
-227 -226 0
228 -76 -152 0
-228 76 0
-228 152 0
229 -109 -228 0
-229 109 0
-229 228 0
230 -78 -152 0
-230 78 0
-230 152 0
231 -109 -230 0
-231 109 0
-231 230 0
232 229 231 0
-232 -229 0
-232 -231 0
233 227 232 0
-233 -227 0
-233 -232 0
234 222 -233 0
-234 -222 0
-234 233 0
235 -219 -234 0
-235 219 0
-235 234 0
236 -212 -235 0
-236 212 0
-236 235 0
237 -135 -236 0
-237 135 0
-237 236 0
238 -136 -237 0
-238 136 0
-238 237 0
239 -136 -177 0
-239 136 0
-239 177 0
240 238 239 0
-240 -238 0
-240 -239 0
241 -44 240 0
-241 44 0
-241 -240 0
242 -45 -241 0
-242 45 0
-242 241 0
243 -76 -139 0
-243 76 0
-243 139 0
244 -67 -243 0
-244 67 0
-244 243 0
245 -78 -139 0
-245 78 0
-245 139 0
246 -67 -245 0
-246 67 0
-246 245 0
247 244 246 0
-247 -244 0
-247 -246 0
248 -76 -145 0
-248 76 0
-248 145 0
249 -65 -248 0
-249 65 0
-249 248 0
250 -78 -145 0
-250 78 0
-250 145 0
251 -65 -250 0
-251 65 0
-251 250 0
252 249 251 0
-252 -249 0
-252 -251 0
253 247 252 0
-253 -247 0
-253 -252 0
254 -76 -142 0
-254 76 0
-254 142 0
255 -60 -254 0
-255 60 0
-255 254 0
256 -78 -142 0
-256 78 0
-256 142 0
257 -60 -256 0
-257 60 0
-257 256 0
258 255 257 0
-258 -255 0
-258 -257 0
259 -76 -143 0
-259 76 0
-259 143 0
260 -62 -259 0
-260 62 0
-260 259 0
261 -78 -143 0
-261 78 0
-261 143 0
262 -62 -261 0
-262 62 0
-262 261 0
263 260 262 0
-263 -260 0
-263 -262 0
264 258 263 0
-264 -258 0
-264 -263 0
265 -253 -264 0
-265 253 0
-265 264 0
266 -76 -127 0
-266 76 0
-266 127 0
267 -80 -266 0
-267 80 0
-267 266 0
268 -78 -127 0
-268 78 0
-268 127 0
269 -80 -268 0
-269 80 0
-269 268 0
270 267 269 0
-270 -267 0
-270 -269 0
271 -76 -141 0
-271 76 0
-271 141 0
272 -70 -271 0
-272 70 0
-272 271 0
273 -78 -141 0
-273 78 0
-273 141 0
274 -70 -273 0
-274 70 0
-274 273 0
275 272 274 0
-275 -272 0
-275 -274 0
276 270 275 0
-276 -270 0
-276 -275 0
277 -76 -125 0
-277 76 0
-277 125 0
278 -88 -277 0
-278 88 0
-278 277 0
279 -78 -125 0
-279 78 0
-279 125 0
280 -88 -279 0
-280 88 0
-280 279 0
281 278 280 0
-281 -278 0
-281 -280 0
282 -76 -137 0
-282 76 0
-282 137 0
283 -86 -282 0
-283 86 0
-283 282 0
284 -78 -137 0
-284 78 0
-284 137 0
285 -86 -284 0
-285 86 0
-285 284 0
286 283 285 0
-286 -283 0
-286 -285 0
287 -76 -130 0
-287 76 0
-287 130 0
288 -83 -287 0
-288 83 0
-288 287 0
289 -78 -130 0
-289 78 0
-289 130 0
290 -83 -289 0
-290 83 0
-290 289 0
291 288 290 0
-291 -288 0
-291 -290 0
292 286 291 0
-292 -286 0
-292 -291 0
293 281 -292 0
-293 -281 0
-293 292 0
294 -276 -293 0
-294 276 0
-294 293 0
295 -265 -294 0
-295 265 0
-295 294 0
296 -135 -295 0
-296 135 0
-296 295 0
297 -136 -296 0
-297 136 0
-297 296 0
298 -136 -178 0
-298 136 0
-298 178 0
299 297 298 0
-299 -297 0
-299 -298 0
300 -44 299 0
-300 44 0
-300 -299 0
301 -45 -300 0
-301 45 0
-301 300 0
302 242 301 0
-302 -242 0
-302 -301 0
303 193 -302 0
-303 -193 0
-303 302 0
304 191 -303 0
-304 -191 0
-304 303 0
305 -28 304 0
-305 28 0
-305 -304 0
306 -188 273 0
-306 188 0
-306 -273 0
307 188 -273 0
-307 -188 0
-307 273 0
308 306 307 0
-308 -306 0
-308 -307 0
309 -70 308 0
-309 70 0
-309 -308 0
310 272 309 0
-310 -272 0
-310 -309 0
311 270 310 0
-311 -270 0
-311 -310 0
312 -293 -311 0
-312 293 0
-312 311 0
313 -265 -312 0
-313 265 0
-313 312 0
314 -135 -313 0
-314 135 0
-314 313 0
315 -136 -314 0
-315 136 0
-315 314 0
316 298 315 0
-316 -298 0
-316 -315 0
317 -44 316 0
-317 44 0
-317 -316 0
318 -45 -317 0
-318 45 0
-318 317 0
319 242 318 0
-319 -242 0
-319 -318 0
320 193 -319 0
-320 -193 0
-320 319 0
321 191 -320 0
-321 -191 0
-321 320 0
322 -28 321 0
-322 28 0
-322 -321 0
323 -305 322 0
-323 305 0
-323 -322 0
324 305 -322 0
-324 -305 0
-324 322 0
325 323 324 0
-325 -323 0
-325 -324 0
326 -42 -50 0
-326 42 0
-326 50 0
327 -43 -326 0
-327 43 0
-327 326 0
328 -42 -49 0
-328 42 0
-328 49 0
329 -43 -328 0
-329 43 0
-329 328 0
330 -42 240 0
-330 42 0
-330 -240 0
331 -43 -330 0
-331 43 0
-331 330 0
332 -42 299 0
-332 42 0
-332 -299 0
333 -43 -332 0
-333 43 0
-333 332 0
334 331 333 0
-334 -331 0
-334 -333 0
335 329 -334 0
-335 -329 0
-335 334 0
336 327 -335 0
-336 -327 0
-336 335 0
337 -28 336 0
-337 28 0
-337 -336 0
338 -42 316 0
-338 42 0
-338 -316 0
339 -43 -338 0
-339 43 0
-339 338 0
340 331 339 0
-340 -331 0
-340 -339 0
341 329 -340 0
-341 -329 0
-341 340 0
342 327 -341 0
-342 -327 0
-342 341 0
343 -28 342 0
-343 28 0
-343 -342 0
344 -337 343 0
-344 337 0
-344 -343 0
345 337 -343 0
-345 -337 0
-345 343 0
346 344 345 0
-346 -344 0
-346 -345 0
347 -133 -163 0
-347 133 0
-347 163 0
348 -134 -347 0
-348 134 0
-348 347 0
349 -29 -133 0
-349 29 0
-349 133 0
350 -134 -349 0
-350 134 0
-350 349 0
351 -133 240 0
-351 133 0
-351 -240 0
352 -134 -351 0
-352 134 0
-352 351 0
353 -133 299 0
-353 133 0
-353 -299 0
354 -134 -353 0
-354 134 0
-354 353 0
355 352 354 0
-355 -352 0
-355 -354 0
356 350 -355 0
-356 -350 0
-356 355 0
357 348 -356 0
-357 -348 0
-357 356 0
358 -133 316 0
-358 133 0
-358 -316 0
359 -134 -358 0
-359 134 0
-359 358 0
360 352 359 0
-360 -352 0
-360 -359 0
361 350 -360 0
-361 -350 0
-361 360 0
362 348 -361 0
-362 -348 0
-362 361 0
363 357 -362 0
-363 -357 0
-363 362 0
364 -357 362 0
-364 357 0
-364 -362 0
365 363 364 0
-365 -363 0
-365 -364 0
366 -132 -163 0
-366 132 0
-366 163 0
367 -131 -366 0
-367 131 0
-367 366 0
368 -29 -132 0
-368 29 0
-368 132 0
369 -131 -368 0
-369 131 0
-369 368 0
370 -132 240 0
-370 132 0
-370 -240 0
371 -131 -370 0
-371 131 0
-371 370 0
372 -132 299 0
-372 132 0
-372 -299 0
373 -131 -372 0
-373 131 0
-373 372 0
374 371 373 0
-374 -371 0
-374 -373 0
375 369 -374 0
-375 -369 0
-375 374 0
376 367 -375 0
-376 -367 0
-376 375 0
377 -132 316 0
-377 132 0
-377 -316 0
378 -131 -377 0
-378 131 0
-378 377 0
379 371 378 0
-379 -371 0
-379 -378 0
380 369 -379 0
-380 -369 0
-380 379 0
381 367 -380 0
-381 -367 0
-381 380 0
382 376 -381 0
-382 -376 0
-382 381 0
383 -376 381 0
-383 376 0
-383 -381 0
384 382 383 0
-384 -382 0
-384 -383 0
385 -41 -44 0
-385 41 0
-385 44 0
386 -45 -385 0
-386 45 0
-386 385 0
387 -44 -56 0
-387 44 0
-387 56 0
388 -45 -387 0
-388 45 0
-388 387 0
389 -11 -135 0
-389 11 0
-389 135 0
390 -136 -389 0
-390 136 0
-390 389 0
391 -135 204 0
-391 135 0
-391 -204 0
392 -136 -391 0
-392 136 0
-392 391 0
393 -100 -105 0
-393 100 0
-393 105 0
394 -102 -105 0
-394 102 0
-394 105 0
395 393 394 0
-395 -393 0
-395 -394 0
396 -148 395 0
-396 148 0
-396 -395 0
397 -97 -105 0
-397 97 0
-397 105 0
398 -99 -105 0
-398 99 0
-398 105 0
399 397 398 0
-399 -397 0
-399 -398 0
400 -146 399 0
-400 146 0
-400 -399 0
401 -396 -400 0
-401 396 0
-401 400 0
402 -103 -105 0
-402 103 0
-402 105 0
403 -104 -105 0
-403 104 0
-403 105 0
404 402 403 0
-404 -402 0
-404 -403 0
405 -149 404 0
-405 149 0
-405 -404 0
406 -401 -405 0
-406 401 0
-406 405 0
407 148 -395 0
-407 -148 0
-407 395 0
408 -400 -407 0
-408 400 0
-408 407 0
409 -405 -408 0
-409 405 0
-409 408 0
410 406 409 0
-410 -406 0
-410 -409 0
411 -135 410 0
-411 135 0
-411 -410 0
412 -136 -411 0
-412 136 0
-412 411 0
413 392 412 0
-413 -392 0
-413 -412 0
414 390 -413 0
-414 -390 0
-414 413 0
415 -44 414 0
-415 44 0
-415 -414 0
416 -45 -415 0
-416 45 0
-416 415 0
417 -135 -153 0
-417 135 0
-417 153 0
418 -136 -417 0
-418 136 0
-418 417 0
419 -115 -145 0
-419 115 0
-419 145 0
420 -65 -419 0
-420 65 0
-420 419 0
421 -114 -145 0
-421 114 0
-421 145 0
422 -65 -421 0
-422 65 0
-422 421 0
423 420 422 0
-423 -420 0
-423 -422 0
424 -135 423 0
-424 135 0
-424 -423 0
425 -136 -424 0
-425 136 0
-425 424 0
426 -67 -106 0
-426 67 0
-426 106 0
427 -69 -106 0
-427 69 0
-427 106 0
428 426 427 0
-428 -426 0
-428 -427 0
429 -139 428 0
-429 139 0
-429 -428 0
430 -65 -106 0
-430 65 0
-430 106 0
431 -66 -106 0
-431 66 0
-431 106 0
432 430 431 0
-432 -430 0
-432 -431 0
433 -145 432 0
-433 145 0
-433 -432 0
434 -429 -433 0
-434 429 0
-434 433 0
435 -70 -106 0
-435 70 0
-435 106 0
436 -73 -106 0
-436 73 0
-436 106 0
437 435 436 0
-437 -435 0
-437 -436 0
438 -141 437 0
-438 141 0
-438 -437 0
439 -434 -438 0
-439 434 0
-439 438 0
440 139 -428 0
-440 -139 0
-440 428 0
441 -433 -440 0
-441 433 0
-441 440 0
442 -438 -441 0
-442 438 0
-442 441 0
443 439 442 0
-443 -439 0
-443 -442 0
444 -135 443 0
-444 135 0
-444 -443 0
445 -136 -444 0
-445 136 0
-445 444 0
446 425 445 0
-446 -425 0
-446 -445 0
447 418 -446 0
-447 -418 0
-447 446 0
448 -44 447 0
-448 44 0
-448 -447 0
449 -45 -448 0
-449 45 0
-449 448 0
450 416 449 0
-450 -416 0
-450 -449 0
451 388 -450 0
-451 -388 0
-451 450 0
452 386 -451 0
-452 -386 0
-452 451 0
453 -28 452 0
-453 28 0
-453 -452 0
454 -183 389 0
-454 183 0
-454 -389 0
455 183 -389 0
-455 -183 0
-455 389 0
456 454 455 0
-456 -454 0
-456 -455 0
457 -136 456 0
-457 136 0
-457 -456 0
458 -413 457 0
-458 413 0
-458 -457 0
459 -44 458 0
-459 44 0
-459 -458 0
460 -45 -459 0
-460 45 0
-460 459 0
461 -184 417 0
-461 184 0
-461 -417 0
462 184 -417 0
-462 -184 0
-462 417 0
463 461 462 0
-463 -461 0
-463 -462 0
464 -136 463 0
-464 136 0
-464 -463 0
465 -446 464 0
-465 446 0
-465 -464 0
466 -44 465 0
-466 44 0
-466 -465 0
467 -45 -466 0
-467 45 0
-467 466 0
468 460 467 0
-468 -460 0
-468 -467 0
469 388 -468 0
-469 -388 0
-469 468 0
470 386 -469 0
-470 -386 0
-470 469 0
471 -28 470 0
-471 28 0
-471 -470 0
472 -453 471 0
-472 453 0
-472 -471 0
473 453 -471 0
-473 -453 0
-473 471 0
474 472 473 0
-474 -472 0
-474 -473 0
475 -41 -42 0
-475 41 0
-475 42 0
476 -43 -475 0
-476 43 0
-476 475 0
477 -42 -56 0
-477 42 0
-477 56 0
478 -43 -477 0
-478 43 0
-478 477 0
479 -42 414 0
-479 42 0
-479 -414 0
480 -43 -479 0
-480 43 0
-480 479 0
481 -42 447 0
-481 42 0
-481 -447 0
482 -43 -481 0
-482 43 0
-482 481 0
483 480 482 0
-483 -480 0
-483 -482 0
484 478 -483 0
-484 -478 0
-484 483 0
485 476 -484 0
-485 -476 0
-485 484 0
486 -28 485 0
-486 28 0
-486 -485 0
487 -42 458 0
-487 42 0
-487 -458 0
488 -43 -487 0
-488 43 0
-488 487 0
489 -42 465 0
-489 42 0
-489 -465 0
490 -43 -489 0
-490 43 0
-490 489 0
491 488 490 0
-491 -488 0
-491 -490 0
492 478 -491 0
-492 -478 0
-492 491 0
493 476 -492 0
-493 -476 0
-493 492 0
494 -28 493 0
-494 28 0
-494 -493 0
495 -486 494 0
-495 486 0
-495 -494 0
496 486 -494 0
-496 -486 0
-496 494 0
497 495 496 0
-497 -495 0
-497 -496 0
498 -129 -133 0
-498 129 0
-498 133 0
499 -134 -498 0
-499 134 0
-499 498 0
500 -133 -176 0
-500 133 0
-500 176 0
501 -134 -500 0
-501 134 0
-501 500 0
502 -7 -135 0
-502 7 0
-502 135 0
503 -136 -502 0
-503 136 0
-503 502 0
504 -135 209 0
-504 135 0
-504 -209 0
505 -136 -504 0
-505 136 0
-505 504 0
506 -396 -405 0
-506 396 0
-506 405 0
507 -135 -506 0
-507 135 0
-507 506 0
508 -136 -507 0
-508 136 0
-508 507 0
509 505 508 0
-509 -505 0
-509 -508 0
510 503 -509 0
-510 -503 0
-510 509 0
511 -133 510 0
-511 133 0
-511 -510 0
512 -134 -511 0
-512 134 0
-512 511 0
513 -8 -135 0
-513 8 0
-513 135 0
514 -136 -513 0
-514 136 0
-514 513 0
515 -115 -139 0
-515 115 0
-515 139 0
516 -67 -515 0
-516 67 0
-516 515 0
517 -114 -139 0
-517 114 0
-517 139 0
518 -67 -517 0
-518 67 0
-518 517 0
519 516 518 0
-519 -516 0
-519 -518 0
520 -135 519 0
-520 135 0
-520 -519 0
521 -136 -520 0
-521 136 0
-521 520 0
522 -429 -438 0
-522 429 0
-522 438 0
523 -135 -522 0
-523 135 0
-523 522 0
524 -136 -523 0
-524 136 0
-524 523 0
525 521 524 0
-525 -521 0
-525 -524 0
526 514 -525 0
-526 -514 0
-526 525 0
527 -133 526 0
-527 133 0
-527 -526 0
528 -134 -527 0
-528 134 0
-528 527 0
529 512 528 0
-529 -512 0
-529 -528 0
530 501 -529 0
-530 -501 0
-530 529 0
531 499 -530 0
-531 -499 0
-531 530 0
532 -187 529 0
-532 187 0
-532 -529 0
533 187 -529 0
-533 -187 0
-533 529 0
534 532 533 0
-534 -532 0
-534 -533 0
535 501 534 0
-535 -501 0
-535 -534 0
536 499 -535 0
-536 -499 0
-536 535 0
537 531 -536 0
-537 -531 0
-537 536 0
538 -531 536 0
-538 531 0
-538 -536 0
539 537 538 0
-539 -537 0
-539 -538 0
540 -3 -133 0
-540 3 0
-540 133 0
541 -134 -540 0
-541 134 0
-541 540 0
542 -2 -133 0
-542 2 0
-542 133 0
543 -134 -542 0
-543 134 0
-543 542 0
544 -133 414 0
-544 133 0
-544 -414 0
545 -134 -544 0
-545 134 0
-545 544 0
546 -133 447 0
-546 133 0
-546 -447 0
547 -134 -546 0
-547 134 0
-547 546 0
548 545 547 0
-548 -545 0
-548 -547 0
549 543 -548 0
-549 -543 0
-549 548 0
550 541 -549 0
-550 -541 0
-550 549 0
551 -133 458 0
-551 133 0
-551 -458 0
552 -134 -551 0
-552 134 0
-552 551 0
553 -133 465 0
-553 133 0
-553 -465 0
554 -134 -553 0
-554 134 0
-554 553 0
555 552 554 0
-555 -552 0
-555 -554 0
556 543 -555 0
-556 -543 0
-556 555 0
557 541 -556 0
-557 -541 0
-557 556 0
558 550 -557 0
-558 -550 0
-558 557 0
559 -550 557 0
-559 550 0
-559 -557 0
560 558 559 0
-560 -558 0
-560 -559 0
561 -133 -147 0
-561 133 0
-561 147 0
562 -134 -561 0
-562 134 0
-562 561 0
563 -133 -144 0
-563 133 0
-563 144 0
564 -134 -563 0
-564 134 0
-564 563 0
565 -16 -135 0
-565 16 0
-565 135 0
566 -136 -565 0
-566 136 0
-566 565 0
567 -135 199 0
-567 135 0
-567 -199 0
568 -136 -567 0
-568 136 0
-568 567 0
569 -95 -105 0
-569 95 0
-569 105 0
570 -96 -105 0
-570 96 0
-570 105 0
571 569 570 0
-571 -569 0
-571 -570 0
572 400 571 0
-572 -400 0
-572 -571 0
573 -405 -572 0
-573 405 0
-573 572 0
574 -400 571 0
-574 400 0
-574 -571 0
575 -405 -574 0
-575 405 0
-575 574 0
576 573 575 0
-576 -573 0
-576 -575 0
577 -135 576 0
-577 135 0
-577 -576 0
578 -136 -577 0
-578 136 0
-578 577 0
579 568 578 0
-579 -568 0
-579 -578 0
580 566 -579 0
-580 -566 0
-580 579 0
581 -133 580 0
-581 133 0
-581 -580 0
582 -134 -581 0
-582 134 0
-582 581 0
583 -9 -135 0
-583 9 0
-583 135 0
584 -136 -583 0
-584 136 0
-584 583 0
585 -115 -143 0
-585 115 0
-585 143 0
586 -62 -585 0
-586 62 0
-586 585 0
587 -114 -143 0
-587 114 0
-587 143 0
588 -62 -587 0
-588 62 0
-588 587 0
589 586 588 0
-589 -586 0
-589 -588 0
590 -135 589 0
-590 135 0
-590 -589 0
591 -136 -590 0
-591 136 0
-591 590 0
592 -62 -106 0
-592 62 0
-592 106 0
593 -63 -106 0
-593 63 0
-593 106 0
594 592 593 0
-594 -592 0
-594 -593 0
595 -143 594 0
-595 143 0
-595 -594 0
596 433 -595 0
-596 -433 0
-596 595 0
597 -438 -596 0
-597 438 0
-597 596 0
598 -433 -595 0
-598 433 0
-598 595 0
599 -438 -598 0
-599 438 0
-599 598 0
600 597 599 0
-600 -597 0
-600 -599 0
601 -135 600 0
-601 135 0
-601 -600 0
602 -136 -601 0
-602 136 0
-602 601 0
603 591 602 0
-603 -591 0
-603 -602 0
604 584 -603 0
-604 -584 0
-604 603 0
605 -133 604 0
-605 133 0
-605 -604 0
606 -134 -605 0
-606 134 0
-606 605 0
607 582 606 0
-607 -582 0
-607 -606 0
608 564 -607 0
-608 -564 0
-608 607 0
609 562 -608 0
-609 -562 0
-609 608 0
610 -186 562 0
-610 186 0
-610 -562 0
611 186 -562 0
-611 -186 0
-611 562 0
612 610 611 0
-612 -610 0
-612 -611 0
613 -608 -612 0
-613 608 0
-613 612 0
614 609 -613 0
-614 -609 0
-614 613 0
615 -609 613 0
-615 609 0
-615 -613 0
616 614 615 0
-616 -614 0
-616 -615 0
617 -129 -132 0
-617 129 0
-617 132 0
618 -131 -617 0
-618 131 0
-618 617 0
619 -132 -176 0
-619 132 0
-619 176 0
620 -131 -619 0
-620 131 0
-620 619 0
621 -132 510 0
-621 132 0
-621 -510 0
622 -131 -621 0
-622 131 0
-622 621 0
623 -132 526 0
-623 132 0
-623 -526 0
624 -131 -623 0
-624 131 0
-624 623 0
625 622 624 0
-625 -622 0
-625 -624 0
626 620 -625 0
-626 -620 0
-626 625 0
627 618 -626 0
-627 -618 0
-627 626 0
628 -185 617 0
-628 185 0
-628 -617 0
629 185 -617 0
-629 -185 0
-629 617 0
630 628 629 0
-630 -628 0
-630 -629 0
631 -131 630 0
-631 131 0
-631 -630 0
632 -626 631 0
-632 626 0
-632 -631 0
633 627 -632 0
-633 -627 0
-633 632 0
634 -627 632 0
-634 627 0
-634 -632 0
635 633 634 0
-635 -633 0
-635 -634 0
636 -3 -132 0
-636 3 0
-636 132 0
637 -131 -636 0
-637 131 0
-637 636 0
638 -2 -132 0
-638 2 0
-638 132 0
639 -131 -638 0
-639 131 0
-639 638 0
640 -132 414 0
-640 132 0
-640 -414 0
641 -131 -640 0
-641 131 0
-641 640 0
642 -132 447 0
-642 132 0
-642 -447 0
643 -131 -642 0
-643 131 0
-643 642 0
644 641 643 0
-644 -641 0
-644 -643 0
645 639 -644 0
-645 -639 0
-645 644 0
646 637 -645 0
-646 -637 0
-646 645 0
647 -132 458 0
-647 132 0
-647 -458 0
648 -131 -647 0
-648 131 0
-648 647 0
649 -132 465 0
-649 132 0
-649 -465 0
650 -131 -649 0
-650 131 0
-650 649 0
651 648 650 0
-651 -648 0
-651 -650 0
652 639 -651 0
-652 -639 0
-652 651 0
653 637 -652 0
-653 -637 0
-653 652 0
654 646 -653 0
-654 -646 0
-654 653 0
655 -646 653 0
-655 646 0
-655 -653 0
656 654 655 0
-656 -654 0
-656 -655 0
657 447 -465 0
-657 -447 0
-657 465 0
658 -447 465 0
-658 447 0
-658 -465 0
659 657 658 0
-659 -657 0
-659 -658 0
660 414 -458 0
-660 -414 0
-660 458 0
661 -414 458 0
-661 414 0
-661 -458 0
662 660 661 0
-662 -660 0
-662 -661 0
663 -36 -44 0
-663 36 0
-663 44 0
664 -45 -663 0
-664 45 0
-664 663 0
665 -37 -44 0
-665 37 0
-665 44 0
666 -45 -665 0
-666 45 0
-666 665 0
667 -14 -135 0
-667 14 0
-667 135 0
668 -136 -667 0
-668 136 0
-668 667 0
669 -115 -152 0
-669 115 0
-669 152 0
670 -109 -669 0
-670 109 0
-670 669 0
671 -114 -152 0
-671 114 0
-671 152 0
672 -109 -671 0
-672 109 0
-672 671 0
673 670 672 0
-673 -670 0
-673 -672 0
674 -135 673 0
-674 135 0
-674 -673 0
675 -136 -674 0
-675 136 0
-675 674 0
676 -105 -111 0
-676 105 0
-676 111 0
677 -105 -116 0
-677 105 0
-677 116 0
678 676 677 0
-678 -676 0
-678 -677 0
679 -154 678 0
-679 154 0
-679 -678 0
680 -105 -109 0
-680 105 0
-680 109 0
681 -105 -110 0
-681 105 0
-681 110 0
682 680 681 0
-682 -680 0
-682 -681 0
683 -152 682 0
-683 152 0
-683 -682 0
684 -679 -683 0
-684 679 0
-684 683 0
685 -135 -684 0
-685 135 0
-685 684 0
686 -136 -685 0
-686 136 0
-686 685 0
687 675 686 0
-687 -675 0
-687 -686 0
688 668 -687 0
-688 -668 0
-688 687 0
689 -44 688 0
-689 44 0
-689 -688 0
690 -45 -689 0
-690 45 0
-690 689 0
691 -20 -135 0
-691 20 0
-691 135 0
692 -136 -691 0
-692 136 0
-692 691 0
693 -115 -130 0
-693 115 0
-693 130 0
694 -83 -693 0
-694 83 0
-694 693 0
695 -114 -130 0
-695 114 0
-695 130 0
696 -83 -695 0
-696 83 0
-696 695 0
697 694 696 0
-697 -694 0
-697 -696 0
698 -135 697 0
-698 135 0
-698 -697 0
699 -136 -698 0
-699 136 0
-699 698 0
700 -86 -106 0
-700 86 0
-700 106 0
701 -87 -106 0
-701 87 0
-701 106 0
702 700 701 0
-702 -700 0
-702 -701 0
703 -137 702 0
-703 137 0
-703 -702 0
704 -83 -106 0
-704 83 0
-704 106 0
705 -85 -106 0
-705 85 0
-705 106 0
706 704 705 0
-706 -704 0
-706 -705 0
707 -130 706 0
-707 130 0
-707 -706 0
708 -703 -707 0
-708 703 0
-708 707 0
709 -135 -708 0
-709 135 0
-709 708 0
710 -136 -709 0
-710 136 0
-710 709 0
711 699 710 0
-711 -699 0
-711 -710 0
712 692 -711 0
-712 -692 0
-712 711 0
713 -44 712 0
-713 44 0
-713 -712 0
714 -45 -713 0
-714 45 0
-714 713 0
715 690 714 0
-715 -690 0
-715 -714 0
716 666 -715 0
-716 -666 0
-716 715 0
717 664 -716 0
-717 -664 0
-717 716 0
718 -28 717 0
-718 28 0
-718 -717 0
719 -180 686 0
-719 180 0
-719 -686 0
720 180 -686 0
-720 -180 0
-720 686 0
721 719 720 0
-721 -719 0
-721 -720 0
722 675 -721 0
-722 -675 0
-722 721 0
723 668 -722 0
-723 -668 0
-723 722 0
724 -44 723 0
-724 44 0
-724 -723 0
725 -45 -724 0
-725 45 0
-725 724 0
726 -179 693 0
-726 179 0
-726 -693 0
727 179 -693 0
-727 -179 0
-727 693 0
728 726 727 0
-728 -726 0
-728 -727 0
729 -83 728 0
-729 83 0
-729 -728 0
730 696 729 0
-730 -696 0
-730 -729 0
731 -135 730 0
-731 135 0
-731 -730 0
732 -136 -731 0
-732 136 0
-732 731 0
733 710 732 0
-733 -710 0
-733 -732 0
734 692 -733 0
-734 -692 0
-734 733 0
735 -44 734 0
-735 44 0
-735 -734 0
736 -45 -735 0
-736 45 0
-736 735 0
737 725 736 0
-737 -725 0
-737 -736 0
738 666 -737 0
-738 -666 0
-738 737 0
739 664 -738 0
-739 -664 0
-739 738 0
740 -28 739 0
-740 28 0
-740 -739 0
741 -718 740 0
-741 718 0
-741 -740 0
742 718 -740 0
-742 -718 0
-742 740 0
743 741 742 0
-743 -741 0
-743 -742 0
744 -36 -42 0
-744 36 0
-744 42 0
745 -43 -744 0
-745 43 0
-745 744 0
746 -37 -42 0
-746 37 0
-746 42 0
747 -43 -746 0
-747 43 0
-747 746 0
748 -42 688 0
-748 42 0
-748 -688 0
749 -43 -748 0
-749 43 0
-749 748 0
750 -42 712 0
-750 42 0
-750 -712 0
751 -43 -750 0
-751 43 0
-751 750 0
752 749 751 0
-752 -749 0
-752 -751 0
753 747 -752 0
-753 -747 0
-753 752 0
754 745 -753 0
-754 -745 0
-754 753 0
755 -28 754 0
-755 28 0
-755 -754 0
756 -42 723 0
-756 42 0
-756 -723 0
757 -43 -756 0
-757 43 0
-757 756 0
758 -42 734 0
-758 42 0
-758 -734 0
759 -43 -758 0
-759 43 0
-759 758 0
760 757 759 0
-760 -757 0
-760 -759 0
761 747 -760 0
-761 -747 0
-761 760 0
762 745 -761 0
-762 -745 0
-762 761 0
763 -28 762 0
-763 28 0
-763 -762 0
764 -755 763 0
-764 755 0
-764 -763 0
765 755 -763 0
-765 -755 0
-765 763 0
766 764 765 0
-766 -764 0
-766 -765 0
767 -46 -133 0
-767 46 0
-767 133 0
768 -134 -767 0
-768 134 0
-768 767 0
769 -133 -166 0
-769 133 0
-769 166 0
770 -134 -769 0
-770 134 0
-770 769 0
771 -133 688 0
-771 133 0
-771 -688 0
772 -134 -771 0
-772 134 0
-772 771 0
773 -133 712 0
-773 133 0
-773 -712 0
774 -134 -773 0
-774 134 0
-774 773 0
775 772 774 0
-775 -772 0
-775 -774 0
776 770 -775 0
-776 -770 0
-776 775 0
777 768 -776 0
-777 -768 0
-777 776 0
778 -133 723 0
-778 133 0
-778 -723 0
779 -134 -778 0
-779 134 0
-779 778 0
780 -133 734 0
-780 133 0
-780 -734 0
781 -134 -780 0
-781 134 0
-781 780 0
782 779 781 0
-782 -779 0
-782 -781 0
783 770 -782 0
-783 -770 0
-783 782 0
784 768 -783 0
-784 -768 0
-784 783 0
785 777 -784 0
-785 -777 0
-785 784 0
786 -777 784 0
-786 777 0
-786 -784 0
787 785 786 0
-787 -785 0
-787 -786 0
788 -46 -132 0
-788 46 0
-788 132 0
789 -131 -788 0
-789 131 0
-789 788 0
790 -132 -166 0
-790 132 0
-790 166 0
791 -131 -790 0
-791 131 0
-791 790 0
792 -132 688 0
-792 132 0
-792 -688 0
793 -131 -792 0
-793 131 0
-793 792 0
794 -132 712 0
-794 132 0
-794 -712 0
795 -131 -794 0
-795 131 0
-795 794 0
796 793 795 0
-796 -793 0
-796 -795 0
797 791 -796 0
-797 -791 0
-797 796 0
798 789 -797 0
-798 -789 0
-798 797 0
799 -132 723 0
-799 132 0
-799 -723 0
800 -131 -799 0
-800 131 0
-800 799 0
801 -132 734 0
-801 132 0
-801 -734 0
802 -131 -801 0
-802 131 0
-802 801 0
803 800 802 0
-803 -800 0
-803 -802 0
804 -182 803 0
-804 182 0
-804 -803 0
805 182 -803 0
-805 -182 0
-805 803 0
806 804 805 0
-806 -804 0
-806 -805 0
807 791 806 0
-807 -791 0
-807 -806 0
808 789 -807 0
-808 -789 0
-808 807 0
809 798 -808 0
-809 -798 0
-809 808 0
810 -798 808 0
-810 798 0
-810 -808 0
811 809 810 0
-811 -809 0
-811 -810 0
812 -42 -52 0
-812 42 0
-812 52 0
813 -43 -812 0
-813 43 0
-813 812 0
814 -42 -51 0
-814 42 0
-814 51 0
815 -43 -814 0
-815 43 0
-815 814 0
816 -24 -135 0
-816 24 0
-816 135 0
817 -136 -816 0
-817 136 0
-817 816 0
818 -135 222 0
-818 135 0
-818 -222 0
819 -136 -818 0
-819 136 0
-819 818 0
820 -105 -117 0
-820 105 0
-820 117 0
821 -105 -118 0
-821 105 0
-821 118 0
822 820 821 0
-822 -820 0
-822 -821 0
823 -155 822 0
-823 155 0
-823 -822 0
824 -135 -823 0
-824 135 0
-824 823 0
825 -136 -824 0
-825 136 0
-825 824 0
826 819 825 0
-826 -819 0
-826 -825 0
827 817 -826 0
-827 -817 0
-827 826 0
828 -42 827 0
-828 42 0
-828 -827 0
829 -43 -828 0
-829 43 0
-829 828 0
830 -12 -135 0
-830 12 0
-830 135 0
831 -136 -830 0
-831 136 0
-831 830 0
832 -115 -125 0
-832 115 0
-832 125 0
833 -88 -832 0
-833 88 0
-833 832 0
834 -114 -125 0
-834 114 0
-834 125 0
835 -88 -834 0
-835 88 0
-835 834 0
836 833 835 0
-836 -833 0
-836 -835 0
837 -135 836 0
-837 135 0
-837 -836 0
838 -136 -837 0
-838 136 0
-838 837 0
839 -88 -106 0
-839 88 0
-839 106 0
840 -90 -106 0
-840 90 0
-840 106 0
841 839 840 0
-841 -839 0
-841 -840 0
842 -125 841 0
-842 125 0
-842 -841 0
843 -128 -842 0
-843 128 0
-843 842 0
844 -135 -843 0
-844 135 0
-844 843 0
845 -136 -844 0
-845 136 0
-845 844 0
846 838 845 0
-846 -838 0
-846 -845 0
847 831 -846 0
-847 -831 0
-847 846 0
848 -42 847 0
-848 42 0
-848 -847 0
849 -43 -848 0
-849 43 0
-849 848 0
850 829 849 0
-850 -829 0
-850 -849 0
851 815 -850 0
-851 -815 0
-851 850 0
852 813 -851 0
-852 -813 0
-852 851 0
853 -28 852 0
-853 28 0
-853 -852 0
854 -181 812 0
-854 181 0
-854 -812 0
855 181 -812 0
-855 -181 0
-855 812 0
856 854 855 0
-856 -854 0
-856 -855 0
857 -43 856 0
-857 43 0
-857 -856 0
858 -851 857 0
-858 851 0
-858 -857 0
859 -28 858 0
-859 28 0
-859 -858 0
860 -853 859 0
-860 853 0
-860 -859 0
861 853 -859 0
-861 -853 0
-861 859 0
862 860 861 0
-862 -860 0
-862 -861 0
863 712 -734 0
-863 -712 0
-863 734 0
864 -712 734 0
-864 712 0
-864 -734 0
865 863 864 0
-865 -863 0
-865 -864 0
866 -115 -141 0
-866 115 0
-866 141 0
867 -70 -866 0
-867 70 0
-867 866 0
868 -114 -141 0
-868 114 0
-868 141 0
869 -70 -868 0
-869 70 0
-869 868 0
870 867 869 0
-870 -867 0
-870 -869 0
871 519 870 0
-871 -519 0
-871 -870 0
872 423 -871 0
-872 -423 0
-872 871 0
873 589 -872 0
-873 -589 0
-873 872 0
874 -115 -127 0
-874 115 0
-874 127 0
875 -80 -874 0
-875 80 0
-875 874 0
876 -114 -127 0
-876 114 0
-876 127 0
877 -80 -876 0
-877 80 0
-877 876 0
878 875 877 0
-878 -875 0
-878 -877 0
879 -115 -137 0
-879 115 0
-879 137 0
880 -86 -879 0
-880 86 0
-880 879 0
881 -114 -137 0
-881 114 0
-881 137 0
882 -86 -881 0
-882 86 0
-882 881 0
883 880 882 0
-883 -880 0
-883 -882 0
884 836 883 0
-884 -836 0
-884 -883 0
885 697 -884 0
-885 -697 0
-885 884 0
886 878 -885 0
-886 -878 0
-886 885 0
887 -873 -886 0
-887 873 0
-887 886 0
888 258 -887 0
-888 -258 0
-888 887 0
889 730 -884 0
-889 -730 0
-889 884 0
890 878 -889 0
-890 -878 0
-890 889 0
891 -873 -890 0
-891 873 0
-891 890 0
892 258 -891 0
-892 -258 0
-892 891 0
893 -888 892 0
-893 888 0
-893 -892 0
894 888 -892 0
-894 -888 0
-894 892 0
895 893 894 0
-895 -893 0
-895 -894 0
896 688 -723 0
-896 -688 0
-896 723 0
897 -688 723 0
-897 688 0
-897 -723 0
898 896 897 0
-898 -896 0
-898 -897 0
899 -895 -898 0
-899 895 0
-899 898 0
900 -865 -899 0
-900 865 0
-900 899 0
901 -862 -900 0
-901 862 0
-901 900 0
902 -811 -901 0
-902 811 0
-902 901 0
903 -787 -902 0
-903 787 0
-903 902 0
904 -766 -903 0
-904 766 0
-904 903 0
905 -743 -904 0
-905 743 0
-905 904 0
906 -662 -905 0
-906 662 0
-906 905 0
907 -659 -906 0
-907 659 0
-907 906 0
908 -656 -907 0
-908 656 0
-908 907 0
909 -635 -908 0
-909 635 0
-909 908 0
910 -616 -909 0
-910 616 0
-910 909 0
911 -560 -910 0
-911 560 0
-911 910 0
912 -539 -911 0
-912 539 0
-912 911 0
913 -497 -912 0
-913 497 0
-913 912 0
914 -474 -913 0
-914 474 0
-914 913 0
915 -384 -914 0
-915 384 0
-915 914 0
916 -365 -915 0
-916 365 0
-916 915 0
917 -346 -916 0
-917 346 0
-917 916 0
918 -325 -917 0
-918 325 0
-918 917 0
189 918 0
-189 -918 0
189 0
